c  simple_cnf_5.cnf
c
p cnf 58 103
-1 -2 3 0
1 -3 0
2 -3 0
3 4 -5 0
-3 5 0
-4 5 0
6 7 -8 0
-6 8 0
-7 8 0
-9 -10 0
9 10 0
8 10 -11 0
-8 11 0
-10 11 0
11 11 -12 0
-11 12 0
-11 12 0
-13 -14 0
13 14 0
-14 -15 16 0
14 -16 0
15 -16 0
-17 -18 0
17 18 0
18 18 -19 0
-18 19 0
-18 19 0
-20 -21 22 0
20 -22 0
21 -22 0
22 23 -24 0
-22 24 0
-23 24 0
-24 -24 25 0
24 -25 0
24 -25 0
-1 -26 27 0
1 -27 0
26 -27 0
27 28 -29 0
-27 29 0
-28 29 0
-26 -30 0
26 30 0
-30 -31 32 0
30 -32 0
31 -32 0
-33 -34 0
33 34 0
32 34 -35 0
-32 35 0
-34 35 0
-6 -7 36 0
6 -36 0
7 -36 0
-36 -37 38 0
36 -38 0
37 -38 0
-38 -38 39 0
38 -39 0
38 -39 0
39 39 -40 0
-39 40 0
-39 40 0
-40 -40 41 0
40 -41 0
40 -41 0
41 41 -42 0
-41 42 0
-41 42 0
-43 -44 45 0
43 -45 0
44 -45 0
-17 -46 0
17 46 0
-45 -46 47 0
45 -47 0
46 -47 0
-48 -37 49 0
48 -49 0
37 -49 0
-43 -50 0
43 50 0
-51 -52 0
51 52 0
-50 -52 53 0
50 -53 0
52 -53 0
-7 -54 0
7 54 0
53 54 -55 0
-53 55 0
-54 55 0
-55 -55 56 0
55 -56 0
55 -56 0
56 56 -57 0
-56 57 0
-56 57 0
42 57 -58 0
-42 58 0
-57 58 0
58 0
